(set-info :status unsat)
(declare-const symbol_17 (_ BitVec 32))
(declare-const symbol_10 (_ BitVec 32))
(declare-const symbol_4 (_ BitVec 32))
(declare-const symbol_0 (_ BitVec 32))
(declare-const symbol_9 (_ BitVec 32))
(declare-const symbol_16 (_ BitVec 32))
(declare-const symbol_14 (_ BitVec 32))
(declare-const symbol_24 (_ BitVec 32))
(declare-const symbol_22 (_ BitVec 32))
(declare-const symbol_19 (_ BitVec 32))
(declare-const symbol_2 (_ BitVec 32))
(declare-const symbol_20 (_ BitVec 32))
(declare-const symbol_7 (_ BitVec 32))
(declare-const symbol_12 (_ BitVec 32))
(declare-const symbol_5 (_ BitVec 32))
(assert (= symbol_24 (_ bv3 32)))
(assert (not (not (= symbol_24 (_ bv5 32)))))
(assert (not (not (= symbol_22 (_ bv5 32)))))
(assert (not (not (= symbol_20 (_ bv5 32)))))
(assert (not (not (= symbol_19 (_ bv5 32)))))
(assert (not (not (= symbol_17 (_ bv5 32)))))
(assert (not (not (= symbol_16 (_ bv5 32)))))
(assert (not (not (= symbol_14 (_ bv5 32)))))
(assert (not (not (= symbol_12 (_ bv5 32)))))
(assert (not (not (= symbol_10 (_ bv5 32)))))
(assert (not (not (= symbol_9 (_ bv5 32)))))
(assert (not (not (= symbol_7 (_ bv5 32)))))
(assert (not (not (= symbol_5 (_ bv5 32)))))
(assert (not (not (= symbol_4 (_ bv5 32)))))
(assert (not (not (= symbol_2 (_ bv5 32)))))
(assert (not (not (= symbol_0 (_ bv1 32)))))
(assert (not (= symbol_0 (_ bv5 32))))
(check-sat)